BAYES
440
2 2 2 2 2 2 2 2 2 2 2 2 2 2 2 2 2 2 2 2 2 2 2 2 2 2 2 2 2 2 2 2 2 2 2 2 2 2 2 2 2 2 2 2 2 2 2 2 2 2 2 2 2 2 2 2 2 2 2 2 2 2 2 2 2 2 2 2 2 2 2 2 2 2 2 2 2 2 2 2 2 2 2 2 2 2 2 2 2 2 2 2 2 2 2 2 2 2 2 2 2 2 2 2 2 2 2 2 2 2 2 2 2 2 2 2 2 2 2 2 2 2 2 2 2 2 2 2 2 2 2 2 2 2 2 2 2 2 2 2 2 2 2 2 2 2 2 2 2 2 2 2 2 2 2 2 2 2 2 2 2 2 2 2 2 2 2 2 2 2 2 2 2 2 2 2 2 2 2 2 2 2 2 2 2 2 2 2 2 2 2 2 2 2 2 2 2 2 2 2 2 2 2 2 2 2 2 2 2 2 2 2 2 2 2 2 2 2 2 2 2 2 2 2 2 2 2 2 2 2 2 2 2 2 2 2 2 2 2 2 2 2 2 2 2 2 2 2 2 2 2 2 2 2 2 2 2 2 2 2 2 2 2 2 2 2 2 2 2 2 2 2 2 2 2 2 2 2 2 2 2 2 2 2 2 2 2 2 2 2 2 2 2 2 2 2 2 2 2 2 2 2 2 2 2 2 2 2 2 2 2 2 2 2 2 2 2 2 2 2 2 2 2 2 2 2 2 2 2 2 2 2 2 2 2 2 2 2 2 2 2 2 2 2 2 2 2 2 2 2 2 2 2 2 2 2 2 2 2 2 2 2 2 2 2 2 2 2 2 2 2 2 2 2 2 2 2 2 2 2 2 2 2 2 2 2 2 2 2 2 2 2 2 2 2 2 2 2 2 2 2 2 2 2 2 2 2 2 2 2 2 2 2 2 2 2 2 2 2 2 2 2 2 2 2 2 2 2 2 2 2 2 2 2 2 2 2 2 2 2 
440
3	143	84	0
3	27	383	1
3	173	165	2
3	150	299	3
3	25	56	4
2	51	5
3	439	291	6
3	285	261	7
3	180	423	8
3	435	257	9
4	55	338	144	10
1	11
3	411	162	12
3	153	271	13
2	97	14
3	238	411	15
3	411	337	16
3	439	130	17
3	277	90	18
3	385	305	19
4	51	112	114	20
3	64	186	21
3	410	303	22
3	438	2	23
1	24
3	439	178	25
3	434	201	26
3	320	300	27
3	410	402	28
3	166	397	29
4	282	391	185	30
3	269	34	31
3	314	392	32
3	50	328	33
3	0	325	34
4	312	140	355	35
3	325	266	36
3	94	59	37
3	66	428	38
3	268	357	39
4	48	228	290	40
3	285	381	41
2	133	42
3	196	283	43
3	96	42	44
3	344	44	45
1	46
4	55	163	251	47
2	184	48
1	49
3	267	142	50
1	51
2	17	52
1	53
3	373	186	54
1	55
4	61	5	114	56
3	143	187	57
3	82	132	58
4	42	404	57	59
4	388	188	354	60
1	61
2	265	62
3	206	10	63
3	275	378	64
3	55	51	65
3	200	32	66
2	177	67
3	156	313	68
2	7	69
1	70
3	140	187	71
3	284	121	72
1	73
3	167	277	74
3	429	161	75
2	314	76
3	187	51	77
3	196	285	78
2	28	79
3	309	370	80
2	289	81
3	150	76	82
3	170	348	83
2	277	84
1	85
3	309	148	86
3	42	288	87
3	252	245	88
2	10	89
2	276	90
3	415	102	91
3	213	58	92
2	72	93
3	179	171	94
1	95
1	96
3	133	70	97
3	23	270	98
3	5	205	99
3	439	341	100
2	342	101
3	101	157	102
3	164	403	103
3	76	118	104
3	61	130	105
3	295	141	106
3	401	400	107
3	282	81	108
2	77	109
2	429	110
3	377	358	111
3	365	143	112
3	244	56	113
3	55	6	114
2	297	115
3	439	47	116
2	83	117
3	42	265	118
3	150	77	119
4	51	0	190	120
3	59	407	121
3	263	314	122
3	101	408	123
3	376	96	124
1	125
2	237	126
3	51	298	127
3	224	249	128
5	26	202	256	266	129
2	291	130
3	150	363	131
3	173	314	132
1	133
1	134
1	135
3	67	307	136
4	131	149	395	137
2	414	138
3	413	209	139
1	140
4	426	65	313	141
2	127	142
2	61	143
3	11	312	144
3	304	22	145
2	89	146
3	262	316	147
3	325	419	148
3	70	318	149
2	53	150
3	5	433	151
3	115	3	152
3	5	276	153
3	164	139	154
3	277	409	155
3	314	208	156
3	76	178	157
2	340	158
3	234	212	159
3	273	343	160
3	410	109	161
3	17	77	162
3	410	369	163
3	96	394	164
2	96	165
3	31	75	166
1	167
3	314	411	168
2	156	169
3	396	119	170
3	314	235	171
1	172
1	173
1	174
3	250	92	175
3	405	204	176
3	55	153	177
4	110	277	430	178
3	314	2	179
3	322	122	180
3	84	97	181
3	364	98	182
4	267	298	2	183
3	2	20	184
3	281	29	185
2	141	186
2	55	187
3	233	111	188
2	286	189
3	76	114	190
1	191
3	128	18	192
3	439	430	193
2	274	194
3	13	240	195
2	167	196
3	223	355	197
4	55	112	208	198
2	6	199
3	61	69	200
3	292	144	201
3	324	78	202
3	84	222	203
2	105	204
3	439	79	205
3	84	225	206
3	53	127	207
3	51	6	208
3	187	299	209
3	96	39	210
3	54	147	211
3	396	150	212
3	70	194	213
2	94	214
3	371	126	215
3	143	393	216
1	217
3	396	53	218
3	230	336	219
4	41	296	432	220
3	192	86	221
2	208	222
3	53	330	223
3	173	96	224
2	263	225
3	364	169	226
3	314	331	227
3	434	323	228
2	190	229
2	394	230
3	312	36	231
2	420	232
3	198	218	233
2	325	234
3	396	53	235
3	341	65	236
3	140	65	237
1	238
3	321	210	239
3	411	63	240
3	186	62	241
1	242
1	243
3	55	205	244
3	230	76	245
4	175	317	232	246
4	272	203	412	247
3	96	180	248
3	190	358	249
3	341	251	250
3	110	143	251
3	401	413	252
3	376	165	253
3	277	76	254
5	418	106	346	316	255
3	320	184	256
3	371	99	257
3	88	279	258
2	25	259
2	56	260
3	347	291	261
3	196	366	262
1	263
3	42	421	264
3	194	57	265
2	303	266
3	375	235	267
3	84	384	268
2	302	269
2	280	270
3	396	319	271
1	272
3	84	89	273
3	277	222	274
3	159	265	275
4	143	14	199	276
1	277
3	100	215	278
2	8	279
3	438	124	280
3	154	423	281
2	99	282
2	22	283
3	137	279	284
3	236	52	285
4	99	197	239	286
3	225	56	287
3	331	438	288
4	51	71	28	289
3	141	182	290
3	110	410	291
2	338	292
2	427	293
3	214	118	294
4	117	382	310	295
2	221	296
3	394	2	297
3	268	412	298
2	247	299
3	401	152	300
3	311	252	301
3	140	216	302
3	187	338	303
3	417	105	304
2	70	305
3	264	279	306
3	325	193	307
3	254	386	308
4	236	0	130	309
3	42	277	310
3	230	253	311
2	410	312
3	396	42	313
1	314
3	367	137	315
3	278	79	316
3	99	327	317
3	143	199	318
3	173	318	319
4	53	396	198	320
3	51	155	321
3	225	76	322
3	394	183	323
3	55	99	324
3	272	53	325
3	422	136	326
3	84	68	327
2	359	328
1	329
3	203	226	330
3	253	224	331
3	0	224	332
3	12	123	333
3	406	211	334
1	335
3	3	403	336
3	17	339	337
4	140	5	402	338
3	55	5	339
4	99	113	145	340
3	187	5	341
4	439	314	176	342
4	110	369	409	343
3	76	274	344
3	287	80	345
3	183	219	346
3	119	399	347
3	376	399	348
2	104	349
1	350
2	304	351
1	352
3	1	231	353
3	301	177	354
2	250	355
2	353	356
3	364	229	357
3	339	291	358
3	297	248	359
4	282	138	16	360
4	295	241	160	361
1	362
3	308	107	363
3	133	70	364
3	70	310	365
3	351	15	366
3	196	25	367
2	60	368
4	51	14	224	369
3	143	285	370
2	217	371
3	385	97	372
3	349	218	373
3	429	193	374
2	401	375
2	173	376
3	269	332	377
3	314	364	378
3	439	236	379
3	385	70	380
3	5	268	381
2	149	382
2	21	383
2	114	384
1	385
3	272	42	386
3	259	176	387
3	294	116	388
4	9	22	116	389
1	390
2	326	391
3	115	207	392
3	74	181	393
1	394
2	341	395
2	272	396
3	124	20	397
1	398
3	165	339	399
3	310	245	400
1	401
2	251	402
3	375	127	403
2	213	404
3	84	339	405
3	133	270	406
3	227	171	407
3	314	178	408
4	410	140	57	409
1	410
2	56	411
3	61	14	412
2	207	413
3	436	81	414
3	374	168	415
3	196	411	416
3	379	405	417
3	431	87	418
3	156	75	419
3	45	151	420
3	305	280	421
3	37	43	422
2	103	423
1	424
1	425
3	376	149	426
3	315	306	427
3	416	33	428
1	429
3	143	161	430
3	159	104	431
2	195	432
2	319	433
2	343	434
3	79	339	435
3	314	387	436
2	361	437
2	120	438
2	140	439

8
 0.000000 1.000000
 0.000000 1.000000
 0.000000 1.000000
 1.000000 0.000000

8
 0.000000 1.000000
 0.000000 1.000000
 0.000000 1.000000
 1.000000 0.000000

8
 0.000000 1.000000
 0.000000 1.000000
 0.000000 1.000000
 1.000000 0.000000

8
 0.000000 1.000000
 0.000000 1.000000
 0.000000 1.000000
 1.000000 0.000000

8
 0.000000 1.000000
 0.000000 1.000000
 0.000000 1.000000
 1.000000 0.000000

4
 0.000000 1.000000
 1.000000 0.000000

8
 0.000000 1.000000
 0.000000 1.000000
 0.000000 1.000000
 1.000000 0.000000

8
 0.000000 1.000000
 1.000000 0.000000
 1.000000 0.000000
 1.000000 0.000000

8
 0.000000 1.000000
 1.000000 0.000000
 1.000000 0.000000
 1.000000 0.000000

8
 0.000000 1.000000
 1.000000 0.000000
 1.000000 0.000000
 1.000000 0.000000

16
 0.000000 1.000000
 1.000000 0.000000
 1.000000 0.000000
 1.000000 0.000000
 1.000000 0.000000
 1.000000 0.000000
 1.000000 0.000000
 1.000000 0.000000

2
 0.500000 0.500000

8
 0.000000 1.000000
 1.000000 0.000000
 1.000000 0.000000
 1.000000 0.000000

8
 0.000000 1.000000
 1.000000 0.000000
 1.000000 0.000000
 1.000000 0.000000

4
 0.000000 1.000000
 1.000000 0.000000

8
 1.000000 0.000000
 1.000000 0.000000
 1.000000 0.000000
 0.000000 1.000000

8
 0.000000 1.000000
 1.000000 0.000000
 1.000000 0.000000
 1.000000 0.000000

8
 0.000000 1.000000
 1.000000 0.000000
 1.000000 0.000000
 1.000000 0.000000

8
 1.000000 0.000000
 1.000000 0.000000
 1.000000 0.000000
 0.000000 1.000000

8
 0.000000 1.000000
 1.000000 0.000000
 1.000000 0.000000
 1.000000 0.000000

16
 0.000000 1.000000
 0.000000 1.000000
 0.000000 1.000000
 0.000000 1.000000
 0.000000 1.000000
 0.000000 1.000000
 0.000000 1.000000
 1.000000 0.000000

8
 0.000000 1.000000
 0.000000 1.000000
 0.000000 1.000000
 1.000000 0.000000

8
 0.000000 1.000000
 0.000000 1.000000
 0.000000 1.000000
 1.000000 0.000000

8
 1.000000 0.000000
 0.000000 1.000000
 0.000000 1.000000
 0.000000 1.000000

2
 0.500000 0.500000

8
 0.000000 1.000000
 0.000000 1.000000
 0.000000 1.000000
 1.000000 0.000000

8
 0.000000 1.000000
 1.000000 0.000000
 1.000000 0.000000
 1.000000 0.000000

8
 0.000000 1.000000
 1.000000 0.000000
 1.000000 0.000000
 1.000000 0.000000

8
 0.000000 1.000000
 0.000000 1.000000
 0.000000 1.000000
 1.000000 0.000000

8
 0.000000 1.000000
 0.000000 1.000000
 0.000000 1.000000
 1.000000 0.000000

16
 0.000000 1.000000
 0.000000 1.000000
 0.000000 1.000000
 0.000000 1.000000
 0.000000 1.000000
 0.000000 1.000000
 0.000000 1.000000
 1.000000 0.000000

8
 0.000000 1.000000
 1.000000 0.000000
 1.000000 0.000000
 1.000000 0.000000

8
 1.000000 0.000000
 1.000000 0.000000
 1.000000 0.000000
 0.000000 1.000000

8
 1.000000 0.000000
 1.000000 0.000000
 1.000000 0.000000
 0.000000 1.000000

8
 1.000000 0.000000
 1.000000 0.000000
 1.000000 0.000000
 0.000000 1.000000

16
 0.000000 1.000000
 1.000000 0.000000
 1.000000 0.000000
 1.000000 0.000000
 1.000000 0.000000
 1.000000 0.000000
 1.000000 0.000000
 1.000000 0.000000

8
 0.000000 1.000000
 1.000000 0.000000
 1.000000 0.000000
 1.000000 0.000000

8
 1.000000 0.000000
 1.000000 0.000000
 1.000000 0.000000
 0.000000 1.000000

8
 0.000000 1.000000
 0.000000 1.000000
 0.000000 1.000000
 1.000000 0.000000

8
 0.000000 1.000000
 1.000000 0.000000
 1.000000 0.000000
 1.000000 0.000000

16
 0.000000 1.000000
 0.000000 1.000000
 0.000000 1.000000
 0.000000 1.000000
 0.000000 1.000000
 0.000000 1.000000
 0.000000 1.000000
 1.000000 0.000000

8
 0.000000 1.000000
 1.000000 0.000000
 1.000000 0.000000
 1.000000 0.000000

4
 0.000000 1.000000
 1.000000 0.000000

8
 1.000000 0.000000
 1.000000 0.000000
 1.000000 0.000000
 0.000000 1.000000

8
 0.000000 1.000000
 0.000000 1.000000
 0.000000 1.000000
 1.000000 0.000000

8
 1.000000 0.000000
 0.000000 1.000000
 0.000000 1.000000
 0.000000 1.000000

2
 0.500000 0.500000

16
 0.000000 1.000000
 1.000000 0.000000
 1.000000 0.000000
 1.000000 0.000000
 1.000000 0.000000
 1.000000 0.000000
 1.000000 0.000000
 1.000000 0.000000

4
 0.000000 1.000000
 1.000000 0.000000

2
 0.500000 0.500000

8
 0.000000 1.000000
 1.000000 0.000000
 1.000000 0.000000
 1.000000 0.000000

2
 0.500000 0.500000

4
 0.000000 1.000000
 1.000000 0.000000

2
 0.500000 0.500000

8
 0.000000 1.000000
 0.000000 1.000000
 0.000000 1.000000
 1.000000 0.000000

2
 0.500000 0.500000

16
 0.000000 1.000000
 0.000000 1.000000
 0.000000 1.000000
 0.000000 1.000000
 0.000000 1.000000
 0.000000 1.000000
 0.000000 1.000000
 1.000000 0.000000

8
 0.000000 1.000000
 0.000000 1.000000
 0.000000 1.000000
 1.000000 0.000000

8
 0.000000 1.000000
 0.000000 1.000000
 0.000000 1.000000
 1.000000 0.000000

16
 0.000000 1.000000
 1.000000 0.000000
 1.000000 0.000000
 1.000000 0.000000
 1.000000 0.000000
 1.000000 0.000000
 1.000000 0.000000
 1.000000 0.000000

16
 0.000000 1.000000
 1.000000 0.000000
 1.000000 0.000000
 1.000000 0.000000
 1.000000 0.000000
 1.000000 0.000000
 1.000000 0.000000
 1.000000 0.000000

2
 0.500000 0.500000

4
 0.000000 1.000000
 1.000000 0.000000

8
 1.000000 0.000000
 1.000000 0.000000
 1.000000 0.000000
 0.000000 1.000000

8
 1.000000 0.000000
 0.000000 1.000000
 0.000000 1.000000
 0.000000 1.000000

8
 0.000000 1.000000
 0.000000 1.000000
 0.000000 1.000000
 1.000000 0.000000

8
 0.000000 1.000000
 1.000000 0.000000
 1.000000 0.000000
 1.000000 0.000000

4
 0.000000 1.000000
 1.000000 0.000000

8
 0.000000 1.000000
 1.000000 0.000000
 1.000000 0.000000
 1.000000 0.000000

4
 0.000000 1.000000
 1.000000 0.000000

2
 0.500000 0.500000

8
 0.000000 1.000000
 1.000000 0.000000
 1.000000 0.000000
 1.000000 0.000000

8
 0.000000 1.000000
 1.000000 0.000000
 1.000000 0.000000
 1.000000 0.000000

2
 0.500000 0.500000

8
 1.000000 0.000000
 0.000000 1.000000
 0.000000 1.000000
 0.000000 1.000000

8
 0.000000 1.000000
 0.000000 1.000000
 0.000000 1.000000
 1.000000 0.000000

4
 0.000000 1.000000
 1.000000 0.000000

8
 0.000000 1.000000
 1.000000 0.000000
 1.000000 0.000000
 1.000000 0.000000

8
 1.000000 0.000000
 1.000000 0.000000
 1.000000 0.000000
 0.000000 1.000000

4
 0.000000 1.000000
 1.000000 0.000000

8
 0.000000 1.000000
 1.000000 0.000000
 1.000000 0.000000
 1.000000 0.000000

4
 0.000000 1.000000
 1.000000 0.000000

8
 1.000000 0.000000
 0.000000 1.000000
 0.000000 1.000000
 0.000000 1.000000

8
 0.000000 1.000000
 0.000000 1.000000
 0.000000 1.000000
 1.000000 0.000000

4
 0.000000 1.000000
 1.000000 0.000000

2
 0.500000 0.500000

8
 0.000000 1.000000
 1.000000 0.000000
 1.000000 0.000000
 1.000000 0.000000

8
 1.000000 0.000000
 1.000000 0.000000
 1.000000 0.000000
 0.000000 1.000000

8
 1.000000 0.000000
 0.000000 1.000000
 0.000000 1.000000
 0.000000 1.000000

4
 0.000000 1.000000
 1.000000 0.000000

4
 0.000000 1.000000
 1.000000 0.000000

8
 0.000000 1.000000
 0.000000 1.000000
 0.000000 1.000000
 1.000000 0.000000

8
 1.000000 0.000000
 1.000000 0.000000
 1.000000 0.000000
 0.000000 1.000000

4
 0.000000 1.000000
 1.000000 0.000000

8
 0.000000 1.000000
 0.000000 1.000000
 0.000000 1.000000
 1.000000 0.000000

2
 0.500000 0.500000

2
 0.500000 0.500000

8
 0.000000 1.000000
 1.000000 0.000000
 1.000000 0.000000
 1.000000 0.000000

8
 0.000000 1.000000
 0.000000 1.000000
 0.000000 1.000000
 1.000000 0.000000

8
 0.000000 1.000000
 1.000000 0.000000
 1.000000 0.000000
 1.000000 0.000000

8
 1.000000 0.000000
 0.000000 1.000000
 0.000000 1.000000
 0.000000 1.000000

4
 0.000000 1.000000
 1.000000 0.000000

8
 0.000000 1.000000
 1.000000 0.000000
 1.000000 0.000000
 1.000000 0.000000

8
 0.000000 1.000000
 1.000000 0.000000
 1.000000 0.000000
 1.000000 0.000000

8
 0.000000 1.000000
 1.000000 0.000000
 1.000000 0.000000
 1.000000 0.000000

8
 0.000000 1.000000
 1.000000 0.000000
 1.000000 0.000000
 1.000000 0.000000

8
 0.000000 1.000000
 1.000000 0.000000
 1.000000 0.000000
 1.000000 0.000000

8
 1.000000 0.000000
 1.000000 0.000000
 1.000000 0.000000
 0.000000 1.000000

8
 0.000000 1.000000
 0.000000 1.000000
 0.000000 1.000000
 1.000000 0.000000

4
 0.000000 1.000000
 1.000000 0.000000

4
 0.000000 1.000000
 1.000000 0.000000

8
 1.000000 0.000000
 0.000000 1.000000
 0.000000 1.000000
 0.000000 1.000000

8
 0.000000 1.000000
 0.000000 1.000000
 0.000000 1.000000
 1.000000 0.000000

8
 0.000000 1.000000
 0.000000 1.000000
 0.000000 1.000000
 1.000000 0.000000

8
 0.000000 1.000000
 1.000000 0.000000
 1.000000 0.000000
 1.000000 0.000000

4
 0.000000 1.000000
 1.000000 0.000000

8
 0.000000 1.000000
 0.000000 1.000000
 0.000000 1.000000
 1.000000 0.000000

4
 0.000000 1.000000
 1.000000 0.000000

8
 0.000000 1.000000
 0.000000 1.000000
 0.000000 1.000000
 1.000000 0.000000

8
 0.000000 1.000000
 0.000000 1.000000
 0.000000 1.000000
 1.000000 0.000000

16
 0.000000 1.000000
 1.000000 0.000000
 1.000000 0.000000
 1.000000 0.000000
 1.000000 0.000000
 1.000000 0.000000
 1.000000 0.000000
 1.000000 0.000000

8
 1.000000 0.000000
 1.000000 0.000000
 1.000000 0.000000
 0.000000 1.000000

8
 1.000000 0.000000
 1.000000 0.000000
 1.000000 0.000000
 0.000000 1.000000

8
 0.000000 1.000000
 1.000000 0.000000
 1.000000 0.000000
 1.000000 0.000000

8
 0.000000 1.000000
 0.000000 1.000000
 0.000000 1.000000
 1.000000 0.000000

2
 0.500000 0.500000

4
 0.000000 1.000000
 1.000000 0.000000

8
 0.000000 1.000000
 1.000000 0.000000
 1.000000 0.000000
 1.000000 0.000000

8
 1.000000 0.000000
 1.000000 0.000000
 1.000000 0.000000
 0.000000 1.000000

32
 0.000000 1.000000
 0.000000 1.000000
 0.000000 1.000000
 0.000000 1.000000
 0.000000 1.000000
 0.000000 1.000000
 0.000000 1.000000
 0.000000 1.000000
 0.000000 1.000000
 0.000000 1.000000
 0.000000 1.000000
 0.000000 1.000000
 0.000000 1.000000
 0.000000 1.000000
 0.000000 1.000000
 1.000000 0.000000

4
 0.000000 1.000000
 1.000000 0.000000

8
 0.000000 1.000000
 1.000000 0.000000
 1.000000 0.000000
 1.000000 0.000000

8
 1.000000 0.000000
 0.000000 1.000000
 0.000000 1.000000
 0.000000 1.000000

2
 0.500000 0.500000

2
 0.500000 0.500000

2
 0.500000 0.500000

8
 0.000000 1.000000
 1.000000 0.000000
 1.000000 0.000000
 1.000000 0.000000

16
 0.000000 1.000000
 0.000000 1.000000
 0.000000 1.000000
 0.000000 1.000000
 0.000000 1.000000
 0.000000 1.000000
 0.000000 1.000000
 1.000000 0.000000

4
 0.000000 1.000000
 1.000000 0.000000

8
 0.000000 1.000000
 1.000000 0.000000
 1.000000 0.000000
 1.000000 0.000000

2
 0.500000 0.500000

16
 0.000000 1.000000
 1.000000 0.000000
 1.000000 0.000000
 1.000000 0.000000
 1.000000 0.000000
 1.000000 0.000000
 1.000000 0.000000
 1.000000 0.000000

4
 0.000000 1.000000
 1.000000 0.000000

4
 0.000000 1.000000
 1.000000 0.000000

8
 0.000000 1.000000
 0.000000 1.000000
 0.000000 1.000000
 1.000000 0.000000

8
 0.000000 1.000000
 0.000000 1.000000
 0.000000 1.000000
 1.000000 0.000000

4
 0.000000 1.000000
 1.000000 0.000000

8
 0.000000 1.000000
 0.000000 1.000000
 0.000000 1.000000
 1.000000 0.000000

8
 1.000000 0.000000
 1.000000 0.000000
 1.000000 0.000000
 0.000000 1.000000

8
 0.000000 1.000000
 1.000000 0.000000
 1.000000 0.000000
 1.000000 0.000000

4
 0.000000 1.000000
 1.000000 0.000000

8
 1.000000 0.000000
 0.000000 1.000000
 0.000000 1.000000
 0.000000 1.000000

8
 0.000000 1.000000
 1.000000 0.000000
 1.000000 0.000000
 1.000000 0.000000

8
 0.000000 1.000000
 1.000000 0.000000
 1.000000 0.000000
 1.000000 0.000000

8
 1.000000 0.000000
 0.000000 1.000000
 0.000000 1.000000
 0.000000 1.000000

8
 0.000000 1.000000
 0.000000 1.000000
 0.000000 1.000000
 1.000000 0.000000

8
 0.000000 1.000000
 0.000000 1.000000
 0.000000 1.000000
 1.000000 0.000000

8
 1.000000 0.000000
 1.000000 0.000000
 1.000000 0.000000
 0.000000 1.000000

4
 0.000000 1.000000
 1.000000 0.000000

8
 0.000000 1.000000
 1.000000 0.000000
 1.000000 0.000000
 1.000000 0.000000

8
 0.000000 1.000000
 0.000000 1.000000
 0.000000 1.000000
 1.000000 0.000000

8
 0.000000 1.000000
 1.000000 0.000000
 1.000000 0.000000
 1.000000 0.000000

8
 1.000000 0.000000
 1.000000 0.000000
 1.000000 0.000000
 0.000000 1.000000

8
 0.000000 1.000000
 1.000000 0.000000
 1.000000 0.000000
 1.000000 0.000000

8
 0.000000 1.000000
 0.000000 1.000000
 0.000000 1.000000
 1.000000 0.000000

4
 0.000000 1.000000
 1.000000 0.000000

8
 1.000000 0.000000
 0.000000 1.000000
 0.000000 1.000000
 0.000000 1.000000

2
 0.500000 0.500000

8
 1.000000 0.000000
 1.000000 0.000000
 1.000000 0.000000
 0.000000 1.000000

4
 0.000000 1.000000
 1.000000 0.000000

8
 1.000000 0.000000
 0.000000 1.000000
 0.000000 1.000000
 0.000000 1.000000

8
 0.000000 1.000000
 0.000000 1.000000
 0.000000 1.000000
 1.000000 0.000000

2
 0.500000 0.500000

2
 0.500000 0.500000

2
 0.500000 0.500000

8
 0.000000 1.000000
 1.000000 0.000000
 1.000000 0.000000
 1.000000 0.000000

8
 0.000000 1.000000
 1.000000 0.000000
 1.000000 0.000000
 1.000000 0.000000

8
 0.000000 1.000000
 0.000000 1.000000
 0.000000 1.000000
 1.000000 0.000000

16
 0.000000 1.000000
 1.000000 0.000000
 1.000000 0.000000
 1.000000 0.000000
 1.000000 0.000000
 1.000000 0.000000
 1.000000 0.000000
 1.000000 0.000000

8
 1.000000 0.000000
 0.000000 1.000000
 0.000000 1.000000
 0.000000 1.000000

8
 0.000000 1.000000
 1.000000 0.000000
 1.000000 0.000000
 1.000000 0.000000

8
 1.000000 0.000000
 0.000000 1.000000
 0.000000 1.000000
 0.000000 1.000000

8
 1.000000 0.000000
 1.000000 0.000000
 1.000000 0.000000
 0.000000 1.000000

16
 0.000000 1.000000
 1.000000 0.000000
 1.000000 0.000000
 1.000000 0.000000
 1.000000 0.000000
 1.000000 0.000000
 1.000000 0.000000
 1.000000 0.000000

8
 0.000000 1.000000
 1.000000 0.000000
 1.000000 0.000000
 1.000000 0.000000

8
 0.000000 1.000000
 1.000000 0.000000
 1.000000 0.000000
 1.000000 0.000000

4
 0.000000 1.000000
 1.000000 0.000000

4
 0.000000 1.000000
 1.000000 0.000000

8
 0.000000 1.000000
 0.000000 1.000000
 0.000000 1.000000
 1.000000 0.000000

4
 0.000000 1.000000
 1.000000 0.000000

8
 0.000000 1.000000
 0.000000 1.000000
 0.000000 1.000000
 1.000000 0.000000

2
 0.500000 0.500000

8
 0.000000 1.000000
 1.000000 0.000000
 1.000000 0.000000
 1.000000 0.000000

8
 0.000000 1.000000
 1.000000 0.000000
 1.000000 0.000000
 1.000000 0.000000

4
 0.000000 1.000000
 1.000000 0.000000

8
 0.000000 1.000000
 0.000000 1.000000
 0.000000 1.000000
 1.000000 0.000000

4
 0.000000 1.000000
 1.000000 0.000000

8
 0.000000 1.000000
 0.000000 1.000000
 0.000000 1.000000
 1.000000 0.000000

16
 0.000000 1.000000
 0.000000 1.000000
 0.000000 1.000000
 0.000000 1.000000
 0.000000 1.000000
 0.000000 1.000000
 0.000000 1.000000
 1.000000 0.000000

4
 0.000000 1.000000
 1.000000 0.000000

8
 1.000000 0.000000
 1.000000 0.000000
 1.000000 0.000000
 0.000000 1.000000

8
 1.000000 0.000000
 1.000000 0.000000
 1.000000 0.000000
 0.000000 1.000000

8
 0.000000 1.000000
 1.000000 0.000000
 1.000000 0.000000
 1.000000 0.000000

8
 0.000000 1.000000
 1.000000 0.000000
 1.000000 0.000000
 1.000000 0.000000

4
 0.000000 1.000000
 1.000000 0.000000

8
 0.000000 1.000000
 0.000000 1.000000
 0.000000 1.000000
 1.000000 0.000000

8
 0.000000 1.000000
 0.000000 1.000000
 0.000000 1.000000
 1.000000 0.000000

8
 0.000000 1.000000
 0.000000 1.000000
 0.000000 1.000000
 1.000000 0.000000

8
 0.000000 1.000000
 1.000000 0.000000
 1.000000 0.000000
 1.000000 0.000000

8
 1.000000 0.000000
 1.000000 0.000000
 1.000000 0.000000
 0.000000 1.000000

8
 1.000000 0.000000
 0.000000 1.000000
 0.000000 1.000000
 0.000000 1.000000

8
 0.000000 1.000000
 1.000000 0.000000
 1.000000 0.000000
 1.000000 0.000000

8
 1.000000 0.000000
 1.000000 0.000000
 1.000000 0.000000
 0.000000 1.000000

8
 0.000000 1.000000
 1.000000 0.000000
 1.000000 0.000000
 1.000000 0.000000

4
 0.000000 1.000000
 1.000000 0.000000

8
 1.000000 0.000000
 0.000000 1.000000
 0.000000 1.000000
 0.000000 1.000000

8
 1.000000 0.000000
 1.000000 0.000000
 1.000000 0.000000
 0.000000 1.000000

2
 0.500000 0.500000

8
 0.000000 1.000000
 0.000000 1.000000
 0.000000 1.000000
 1.000000 0.000000

8
 1.000000 0.000000
 1.000000 0.000000
 1.000000 0.000000
 0.000000 1.000000

16
 0.000000 1.000000
 0.000000 1.000000
 0.000000 1.000000
 0.000000 1.000000
 0.000000 1.000000
 0.000000 1.000000
 0.000000 1.000000
 1.000000 0.000000

8
 0.000000 1.000000
 0.000000 1.000000
 0.000000 1.000000
 1.000000 0.000000

4
 0.000000 1.000000
 1.000000 0.000000

8
 1.000000 0.000000
 0.000000 1.000000
 0.000000 1.000000
 0.000000 1.000000

8
 0.000000 1.000000
 0.000000 1.000000
 0.000000 1.000000
 1.000000 0.000000

4
 0.000000 1.000000
 1.000000 0.000000

8
 1.000000 0.000000
 1.000000 0.000000
 1.000000 0.000000
 0.000000 1.000000

8
 1.000000 0.000000
 0.000000 1.000000
 0.000000 1.000000
 0.000000 1.000000

8
 0.000000 1.000000
 1.000000 0.000000
 1.000000 0.000000
 1.000000 0.000000

4
 0.000000 1.000000
 1.000000 0.000000

4
 0.000000 1.000000
 1.000000 0.000000

8
 1.000000 0.000000
 1.000000 0.000000
 1.000000 0.000000
 0.000000 1.000000

4
 0.000000 1.000000
 1.000000 0.000000

8
 1.000000 0.000000
 0.000000 1.000000
 0.000000 1.000000
 0.000000 1.000000

4
 0.000000 1.000000
 1.000000 0.000000

8
 0.000000 1.000000
 1.000000 0.000000
 1.000000 0.000000
 1.000000 0.000000

8
 0.000000 1.000000
 0.000000 1.000000
 0.000000 1.000000
 1.000000 0.000000

8
 0.000000 1.000000
 1.000000 0.000000
 1.000000 0.000000
 1.000000 0.000000

2
 0.500000 0.500000

8
 0.000000 1.000000
 0.000000 1.000000
 0.000000 1.000000
 1.000000 0.000000

8
 0.000000 1.000000
 1.000000 0.000000
 1.000000 0.000000
 1.000000 0.000000

8
 0.000000 1.000000
 0.000000 1.000000
 0.000000 1.000000
 1.000000 0.000000

2
 0.500000 0.500000

2
 0.500000 0.500000

8
 1.000000 0.000000
 0.000000 1.000000
 0.000000 1.000000
 0.000000 1.000000

8
 0.000000 1.000000
 0.000000 1.000000
 0.000000 1.000000
 1.000000 0.000000

16
 0.000000 1.000000
 0.000000 1.000000
 0.000000 1.000000
 0.000000 1.000000
 0.000000 1.000000
 0.000000 1.000000
 0.000000 1.000000
 1.000000 0.000000

16
 0.000000 1.000000
 0.000000 1.000000
 0.000000 1.000000
 0.000000 1.000000
 0.000000 1.000000
 0.000000 1.000000
 0.000000 1.000000
 1.000000 0.000000

8
 1.000000 0.000000
 1.000000 0.000000
 1.000000 0.000000
 0.000000 1.000000

8
 0.000000 1.000000
 0.000000 1.000000
 0.000000 1.000000
 1.000000 0.000000

8
 0.000000 1.000000
 1.000000 0.000000
 1.000000 0.000000
 1.000000 0.000000

8
 0.000000 1.000000
 0.000000 1.000000
 0.000000 1.000000
 1.000000 0.000000

8
 0.000000 1.000000
 0.000000 1.000000
 0.000000 1.000000
 1.000000 0.000000

8
 0.000000 1.000000
 0.000000 1.000000
 0.000000 1.000000
 1.000000 0.000000

8
 0.000000 1.000000
 1.000000 0.000000
 1.000000 0.000000
 1.000000 0.000000

32
 0.000000 1.000000
 0.000000 1.000000
 0.000000 1.000000
 0.000000 1.000000
 0.000000 1.000000
 0.000000 1.000000
 0.000000 1.000000
 0.000000 1.000000
 0.000000 1.000000
 0.000000 1.000000
 0.000000 1.000000
 0.000000 1.000000
 0.000000 1.000000
 0.000000 1.000000
 0.000000 1.000000
 1.000000 0.000000

8
 0.000000 1.000000
 1.000000 0.000000
 1.000000 0.000000
 1.000000 0.000000

8
 1.000000 0.000000
 1.000000 0.000000
 1.000000 0.000000
 0.000000 1.000000

8
 0.000000 1.000000
 0.000000 1.000000
 0.000000 1.000000
 1.000000 0.000000

4
 0.000000 1.000000
 1.000000 0.000000

4
 0.000000 1.000000
 1.000000 0.000000

8
 1.000000 0.000000
 1.000000 0.000000
 1.000000 0.000000
 0.000000 1.000000

8
 1.000000 0.000000
 0.000000 1.000000
 0.000000 1.000000
 0.000000 1.000000

2
 0.500000 0.500000

8
 1.000000 0.000000
 0.000000 1.000000
 0.000000 1.000000
 0.000000 1.000000

8
 0.000000 1.000000
 1.000000 0.000000
 1.000000 0.000000
 1.000000 0.000000

4
 0.000000 1.000000
 1.000000 0.000000

8
 0.000000 1.000000
 1.000000 0.000000
 1.000000 0.000000
 1.000000 0.000000

8
 0.000000 1.000000
 1.000000 0.000000
 1.000000 0.000000
 1.000000 0.000000

4
 0.000000 1.000000
 1.000000 0.000000

4
 0.000000 1.000000
 1.000000 0.000000

8
 1.000000 0.000000
 1.000000 0.000000
 1.000000 0.000000
 0.000000 1.000000

2
 0.500000 0.500000

8
 1.000000 0.000000
 0.000000 1.000000
 0.000000 1.000000
 0.000000 1.000000

8
 0.000000 1.000000
 1.000000 0.000000
 1.000000 0.000000
 1.000000 0.000000

8
 0.000000 1.000000
 0.000000 1.000000
 0.000000 1.000000
 1.000000 0.000000

16
 0.000000 1.000000
 0.000000 1.000000
 0.000000 1.000000
 0.000000 1.000000
 0.000000 1.000000
 0.000000 1.000000
 0.000000 1.000000
 1.000000 0.000000

2
 0.500000 0.500000

8
 0.000000 1.000000
 0.000000 1.000000
 0.000000 1.000000
 1.000000 0.000000

4
 0.000000 1.000000
 1.000000 0.000000

8
 0.000000 1.000000
 1.000000 0.000000
 1.000000 0.000000
 1.000000 0.000000

8
 0.000000 1.000000
 0.000000 1.000000
 0.000000 1.000000
 1.000000 0.000000

4
 0.000000 1.000000
 1.000000 0.000000

4
 0.000000 1.000000
 1.000000 0.000000

8
 0.000000 1.000000
 0.000000 1.000000
 0.000000 1.000000
 1.000000 0.000000

8
 0.000000 1.000000
 1.000000 0.000000
 1.000000 0.000000
 1.000000 0.000000

16
 0.000000 1.000000
 1.000000 0.000000
 1.000000 0.000000
 1.000000 0.000000
 1.000000 0.000000
 1.000000 0.000000
 1.000000 0.000000
 1.000000 0.000000

8
 1.000000 0.000000
 0.000000 1.000000
 0.000000 1.000000
 0.000000 1.000000

8
 0.000000 1.000000
 1.000000 0.000000
 1.000000 0.000000
 1.000000 0.000000

16
 0.000000 1.000000
 1.000000 0.000000
 1.000000 0.000000
 1.000000 0.000000
 1.000000 0.000000
 1.000000 0.000000
 1.000000 0.000000
 1.000000 0.000000

8
 0.000000 1.000000
 1.000000 0.000000
 1.000000 0.000000
 1.000000 0.000000

8
 0.000000 1.000000
 1.000000 0.000000
 1.000000 0.000000
 1.000000 0.000000

4
 0.000000 1.000000
 1.000000 0.000000

4
 0.000000 1.000000
 1.000000 0.000000

8
 1.000000 0.000000
 0.000000 1.000000
 0.000000 1.000000
 0.000000 1.000000

16
 0.000000 1.000000
 1.000000 0.000000
 1.000000 0.000000
 1.000000 0.000000
 1.000000 0.000000
 1.000000 0.000000
 1.000000 0.000000
 1.000000 0.000000

4
 0.000000 1.000000
 1.000000 0.000000

8
 0.000000 1.000000
 0.000000 1.000000
 0.000000 1.000000
 1.000000 0.000000

8
 0.000000 1.000000
 0.000000 1.000000
 0.000000 1.000000
 1.000000 0.000000

4
 0.000000 1.000000
 1.000000 0.000000

8
 1.000000 0.000000
 1.000000 0.000000
 1.000000 0.000000
 0.000000 1.000000

8
 1.000000 0.000000
 0.000000 1.000000
 0.000000 1.000000
 0.000000 1.000000

8
 0.000000 1.000000
 1.000000 0.000000
 1.000000 0.000000
 1.000000 0.000000

8
 0.000000 1.000000
 1.000000 0.000000
 1.000000 0.000000
 1.000000 0.000000

8
 0.000000 1.000000
 0.000000 1.000000
 0.000000 1.000000
 1.000000 0.000000

4
 0.000000 1.000000
 1.000000 0.000000

8
 0.000000 1.000000
 0.000000 1.000000
 0.000000 1.000000
 1.000000 0.000000

8
 1.000000 0.000000
 1.000000 0.000000
 1.000000 0.000000
 0.000000 1.000000

8
 1.000000 0.000000
 1.000000 0.000000
 1.000000 0.000000
 0.000000 1.000000

16
 0.000000 1.000000
 1.000000 0.000000
 1.000000 0.000000
 1.000000 0.000000
 1.000000 0.000000
 1.000000 0.000000
 1.000000 0.000000
 1.000000 0.000000

8
 0.000000 1.000000
 0.000000 1.000000
 0.000000 1.000000
 1.000000 0.000000

8
 0.000000 1.000000
 1.000000 0.000000
 1.000000 0.000000
 1.000000 0.000000

4
 0.000000 1.000000
 1.000000 0.000000

8
 0.000000 1.000000
 0.000000 1.000000
 0.000000 1.000000
 1.000000 0.000000

2
 0.500000 0.500000

8
 0.000000 1.000000
 0.000000 1.000000
 0.000000 1.000000
 1.000000 0.000000

8
 0.000000 1.000000
 0.000000 1.000000
 0.000000 1.000000
 1.000000 0.000000

8
 0.000000 1.000000
 1.000000 0.000000
 1.000000 0.000000
 1.000000 0.000000

8
 0.000000 1.000000
 0.000000 1.000000
 0.000000 1.000000
 1.000000 0.000000

8
 0.000000 1.000000
 1.000000 0.000000
 1.000000 0.000000
 1.000000 0.000000

16
 0.000000 1.000000
 1.000000 0.000000
 1.000000 0.000000
 1.000000 0.000000
 1.000000 0.000000
 1.000000 0.000000
 1.000000 0.000000
 1.000000 0.000000

8
 1.000000 0.000000
 0.000000 1.000000
 0.000000 1.000000
 0.000000 1.000000

8
 1.000000 0.000000
 1.000000 0.000000
 1.000000 0.000000
 0.000000 1.000000

8
 1.000000 0.000000
 1.000000 0.000000
 1.000000 0.000000
 0.000000 1.000000

8
 1.000000 0.000000
 1.000000 0.000000
 1.000000 0.000000
 0.000000 1.000000

8
 0.000000 1.000000
 0.000000 1.000000
 0.000000 1.000000
 1.000000 0.000000

8
 0.000000 1.000000
 0.000000 1.000000
 0.000000 1.000000
 1.000000 0.000000

8
 1.000000 0.000000
 1.000000 0.000000
 1.000000 0.000000
 0.000000 1.000000

4
 0.000000 1.000000
 1.000000 0.000000

2
 0.500000 0.500000

8
 0.000000 1.000000
 1.000000 0.000000
 1.000000 0.000000
 1.000000 0.000000

8
 0.000000 1.000000
 0.000000 1.000000
 0.000000 1.000000
 1.000000 0.000000

8
 1.000000 0.000000
 1.000000 0.000000
 1.000000 0.000000
 0.000000 1.000000

8
 0.000000 1.000000
 0.000000 1.000000
 0.000000 1.000000
 1.000000 0.000000

8
 0.000000 1.000000
 0.000000 1.000000
 0.000000 1.000000
 1.000000 0.000000

2
 0.500000 0.500000

8
 0.000000 1.000000
 0.000000 1.000000
 0.000000 1.000000
 1.000000 0.000000

8
 1.000000 0.000000
 1.000000 0.000000
 1.000000 0.000000
 0.000000 1.000000

16
 0.000000 1.000000
 0.000000 1.000000
 0.000000 1.000000
 0.000000 1.000000
 0.000000 1.000000
 0.000000 1.000000
 0.000000 1.000000
 1.000000 0.000000

8
 0.000000 1.000000
 1.000000 0.000000
 1.000000 0.000000
 1.000000 0.000000

16
 0.000000 1.000000
 1.000000 0.000000
 1.000000 0.000000
 1.000000 0.000000
 1.000000 0.000000
 1.000000 0.000000
 1.000000 0.000000
 1.000000 0.000000

8
 0.000000 1.000000
 0.000000 1.000000
 0.000000 1.000000
 1.000000 0.000000

16
 0.000000 1.000000
 0.000000 1.000000
 0.000000 1.000000
 0.000000 1.000000
 0.000000 1.000000
 0.000000 1.000000
 0.000000 1.000000
 1.000000 0.000000

16
 0.000000 1.000000
 0.000000 1.000000
 0.000000 1.000000
 0.000000 1.000000
 0.000000 1.000000
 0.000000 1.000000
 0.000000 1.000000
 1.000000 0.000000

8
 0.000000 1.000000
 0.000000 1.000000
 0.000000 1.000000
 1.000000 0.000000

8
 0.000000 1.000000
 0.000000 1.000000
 0.000000 1.000000
 1.000000 0.000000

8
 0.000000 1.000000
 1.000000 0.000000
 1.000000 0.000000
 1.000000 0.000000

8
 0.000000 1.000000
 0.000000 1.000000
 0.000000 1.000000
 1.000000 0.000000

8
 1.000000 0.000000
 0.000000 1.000000
 0.000000 1.000000
 0.000000 1.000000

4
 0.000000 1.000000
 1.000000 0.000000

2
 0.500000 0.500000

4
 0.000000 1.000000
 1.000000 0.000000

2
 0.500000 0.500000

8
 0.000000 1.000000
 1.000000 0.000000
 1.000000 0.000000
 1.000000 0.000000

8
 0.000000 1.000000
 0.000000 1.000000
 0.000000 1.000000
 1.000000 0.000000

4
 0.000000 1.000000
 1.000000 0.000000

4
 0.000000 1.000000
 1.000000 0.000000

8
 1.000000 0.000000
 1.000000 0.000000
 1.000000 0.000000
 0.000000 1.000000

8
 0.000000 1.000000
 0.000000 1.000000
 0.000000 1.000000
 1.000000 0.000000

8
 0.000000 1.000000
 1.000000 0.000000
 1.000000 0.000000
 1.000000 0.000000

16
 0.000000 1.000000
 0.000000 1.000000
 0.000000 1.000000
 0.000000 1.000000
 0.000000 1.000000
 0.000000 1.000000
 0.000000 1.000000
 1.000000 0.000000

16
 0.000000 1.000000
 1.000000 0.000000
 1.000000 0.000000
 1.000000 0.000000
 1.000000 0.000000
 1.000000 0.000000
 1.000000 0.000000
 1.000000 0.000000

2
 0.500000 0.500000

8
 0.000000 1.000000
 1.000000 0.000000
 1.000000 0.000000
 1.000000 0.000000

8
 0.000000 1.000000
 0.000000 1.000000
 0.000000 1.000000
 1.000000 0.000000

8
 1.000000 0.000000
 0.000000 1.000000
 0.000000 1.000000
 0.000000 1.000000

8
 0.000000 1.000000
 1.000000 0.000000
 1.000000 0.000000
 1.000000 0.000000

8
 1.000000 0.000000
 0.000000 1.000000
 0.000000 1.000000
 0.000000 1.000000

4
 0.000000 1.000000
 1.000000 0.000000

16
 0.000000 1.000000
 1.000000 0.000000
 1.000000 0.000000
 1.000000 0.000000
 1.000000 0.000000
 1.000000 0.000000
 1.000000 0.000000
 1.000000 0.000000

8
 1.000000 0.000000
 1.000000 0.000000
 1.000000 0.000000
 0.000000 1.000000

4
 0.000000 1.000000
 1.000000 0.000000

8
 0.000000 1.000000
 1.000000 0.000000
 1.000000 0.000000
 1.000000 0.000000

8
 1.000000 0.000000
 0.000000 1.000000
 0.000000 1.000000
 0.000000 1.000000

8
 1.000000 0.000000
 1.000000 0.000000
 1.000000 0.000000
 0.000000 1.000000

4
 0.000000 1.000000
 1.000000 0.000000

4
 0.000000 1.000000
 1.000000 0.000000

8
 0.000000 1.000000
 1.000000 0.000000
 1.000000 0.000000
 1.000000 0.000000

8
 0.000000 1.000000
 0.000000 1.000000
 0.000000 1.000000
 1.000000 0.000000

8
 1.000000 0.000000
 0.000000 1.000000
 0.000000 1.000000
 0.000000 1.000000

8
 0.000000 1.000000
 1.000000 0.000000
 1.000000 0.000000
 1.000000 0.000000

8
 1.000000 0.000000
 1.000000 0.000000
 1.000000 0.000000
 0.000000 1.000000

4
 0.000000 1.000000
 1.000000 0.000000

4
 0.000000 1.000000
 1.000000 0.000000

4
 0.000000 1.000000
 1.000000 0.000000

2
 0.500000 0.500000

8
 0.000000 1.000000
 1.000000 0.000000
 1.000000 0.000000
 1.000000 0.000000

8
 0.000000 1.000000
 1.000000 0.000000
 1.000000 0.000000
 1.000000 0.000000

8
 0.000000 1.000000
 0.000000 1.000000
 0.000000 1.000000
 1.000000 0.000000

16
 0.000000 1.000000
 0.000000 1.000000
 0.000000 1.000000
 0.000000 1.000000
 0.000000 1.000000
 0.000000 1.000000
 0.000000 1.000000
 1.000000 0.000000

2
 0.500000 0.500000

4
 0.000000 1.000000
 1.000000 0.000000

8
 0.000000 1.000000
 1.000000 0.000000
 1.000000 0.000000
 1.000000 0.000000

8
 0.000000 1.000000
 0.000000 1.000000
 0.000000 1.000000
 1.000000 0.000000

2
 0.500000 0.500000

4
 0.000000 1.000000
 1.000000 0.000000

4
 0.000000 1.000000
 1.000000 0.000000

8
 1.000000 0.000000
 0.000000 1.000000
 0.000000 1.000000
 0.000000 1.000000

2
 0.500000 0.500000

8
 0.000000 1.000000
 0.000000 1.000000
 0.000000 1.000000
 1.000000 0.000000

8
 0.000000 1.000000
 1.000000 0.000000
 1.000000 0.000000
 1.000000 0.000000

2
 0.500000 0.500000

4
 0.000000 1.000000
 1.000000 0.000000

8
 0.000000 1.000000
 0.000000 1.000000
 0.000000 1.000000
 1.000000 0.000000

4
 0.000000 1.000000
 1.000000 0.000000

8
 0.000000 1.000000
 0.000000 1.000000
 0.000000 1.000000
 1.000000 0.000000

8
 1.000000 0.000000
 0.000000 1.000000
 0.000000 1.000000
 0.000000 1.000000

8
 0.000000 1.000000
 0.000000 1.000000
 0.000000 1.000000
 1.000000 0.000000

8
 1.000000 0.000000
 1.000000 0.000000
 1.000000 0.000000
 0.000000 1.000000

16
 0.000000 1.000000
 1.000000 0.000000
 1.000000 0.000000
 1.000000 0.000000
 1.000000 0.000000
 1.000000 0.000000
 1.000000 0.000000
 1.000000 0.000000

2
 0.500000 0.500000

4
 0.000000 1.000000
 1.000000 0.000000

8
 0.000000 1.000000
 1.000000 0.000000
 1.000000 0.000000
 1.000000 0.000000

4
 0.000000 1.000000
 1.000000 0.000000

8
 0.000000 1.000000
 0.000000 1.000000
 0.000000 1.000000
 1.000000 0.000000

8
 0.000000 1.000000
 1.000000 0.000000
 1.000000 0.000000
 1.000000 0.000000

8
 1.000000 0.000000
 1.000000 0.000000
 1.000000 0.000000
 0.000000 1.000000

8
 0.000000 1.000000
 0.000000 1.000000
 0.000000 1.000000
 1.000000 0.000000

8
 0.000000 1.000000
 1.000000 0.000000
 1.000000 0.000000
 1.000000 0.000000

8
 0.000000 1.000000
 0.000000 1.000000
 0.000000 1.000000
 1.000000 0.000000

8
 0.000000 1.000000
 0.000000 1.000000
 0.000000 1.000000
 1.000000 0.000000

8
 0.000000 1.000000
 0.000000 1.000000
 0.000000 1.000000
 1.000000 0.000000

8
 0.000000 1.000000
 1.000000 0.000000
 1.000000 0.000000
 1.000000 0.000000

4
 0.000000 1.000000
 1.000000 0.000000

2
 0.500000 0.500000

2
 0.500000 0.500000

8
 0.000000 1.000000
 0.000000 1.000000
 0.000000 1.000000
 1.000000 0.000000

8
 0.000000 1.000000
 1.000000 0.000000
 1.000000 0.000000
 1.000000 0.000000

8
 0.000000 1.000000
 1.000000 0.000000
 1.000000 0.000000
 1.000000 0.000000

2
 0.500000 0.500000

8
 0.000000 1.000000
 0.000000 1.000000
 0.000000 1.000000
 1.000000 0.000000

8
 1.000000 0.000000
 1.000000 0.000000
 1.000000 0.000000
 0.000000 1.000000

4
 0.000000 1.000000
 1.000000 0.000000

4
 0.000000 1.000000
 1.000000 0.000000

4
 0.000000 1.000000
 1.000000 0.000000

8
 1.000000 0.000000
 1.000000 0.000000
 1.000000 0.000000
 0.000000 1.000000

8
 1.000000 0.000000
 0.000000 1.000000
 0.000000 1.000000
 0.000000 1.000000

4
 0.000000 1.000000
 1.000000 0.000000

4
 0.000000 1.000000
 1.000000 0.000000

4
 0.000000 1.000000
 1.000000 0.000000

